NAME : kz9976
COMMENT : 9976 locations in Kazakhstan
COMMENT : Derived from National Imagery and Mapping Agency data
TYPE : TSP
DIMENSION : 9976
EDGE_WEIGHT_TYPE : EUC_2D
NODE_COORD_SECTION
Command terminated by signal 9
	Command being timed: "./Held-Karp_algorithm ./dataset/kz9976.tsp"
	User time (seconds): 0.35
	System time (seconds): 1.50
	Percent of CPU this job got: 97%
	Elapsed (wall clock) time (h:mm:ss or m:ss): 0:01.91
	Average shared text size (kbytes): 0
	Average unshared data size (kbytes): 0
	Average stack size (kbytes): 0
	Average total size (kbytes): 0
	Maximum resident set size (kbytes): 5050248
	Average resident set size (kbytes): 0
	Major (requiring I/O) page faults: 82
	Minor (reclaiming a frame) page faults: 1262639
	Voluntary context switches: 111
	Involuntary context switches: 276
	Swaps: 0
	File system inputs: 17000
	File system outputs: 8
	Socket messages sent: 0
	Socket messages received: 0
	Signals delivered: 0
	Page size (bytes): 4096
	Exit status: 0
